data;
set M := 1 2 3 4;
set P :=  1 2 3 4 5 6 7 8 9 10 11 12 13 14 15 16 17 18 19 20 21 22 23 24 25 26 27 28 29 30 31 32 33 34 35 36 37 38 39 40 41 42 43 44 45 46 47 48 49 50 51 52 53 54 55 56 57 58 59 60 61 62 63 64 65 66 67 68 69 70 71 72 73 74 75 76 77 78 79 80 81 82 83 84 85 86 87 88 89 90 91 92 93 94 95 96 97 98 99 100;
set R :=  1 2;
set TR :=;
param ns := 79;
set S[1] := 58 70 72 86;
set S[2] := 50 53 55 98;
set S[3] := 31 48 94;
set S[4] := 11 40 63 83;
set S[5] := 9 24 65 100;
set S[6] := 49 99;
set S[7] := 39 90;
set S[8] := 5 6 95;
set S[9] := 22 32;
set S[10] := 43 44 66;
set S[11] := 1;
set S[12] := 2;
set S[13] := 3;
set S[14] := 4;
set S[15] := 7;
set S[16] := 8;
set S[17] := 10;
set S[18] := 12;
set S[19] := 13;
set S[20] := 14;
set S[21] := 15;
set S[22] := 16;
set S[23] := 17;
set S[24] := 18;
set S[25] := 19;
set S[26] := 20;
set S[27] := 21;
set S[28] := 23;
set S[29] := 25;
set S[30] := 26;
set S[31] := 27;
set S[32] := 28;
set S[33] := 29;
set S[34] := 30;
set S[35] := 33;
set S[36] := 34;
set S[37] := 35;
set S[38] := 36;
set S[39] := 37;
set S[40] := 38;
set S[41] := 41;
set S[42] := 42;
set S[43] := 45;
set S[44] := 46;
set S[45] := 47;
set S[46] := 51;
set S[47] := 52;
set S[48] := 54;
set S[49] := 56;
set S[50] := 57;
set S[51] := 59;
set S[52] := 60;
set S[53] := 61;
set S[54] := 62;
set S[55] := 64;
set S[56] := 67;
set S[57] := 68;
set S[58] := 69;
set S[59] := 71;
set S[60] := 73;
set S[61] := 74;
set S[62] := 75;
set S[63] := 76;
set S[64] := 77;
set S[65] := 78;
set S[66] := 79;
set S[67] := 80;
set S[68] := 81;
set S[69] := 82;
set S[70] := 84;
set S[71] := 85;
set S[72] := 87;
set S[73] := 88;
set S[74] := 89;
set S[75] := 91;
set S[76] := 92;
set S[77] := 93;
set S[78] := 96;
set S[79] := 97;
param Nei :=
	1 1
	2 1
	3 1
	4 1;
param Loc :=
	1 3
	2 4
	3 2
	4 1;
param C :  1 2 := 
	1 4419212 4321679
	2 2887359 3105813
	3 3212243 4633050
	4 3972793 5353724
;
param SC :  1 2 := 
	1 3729814 3677748
	2 2717004 2323148
	3 2277480 3836165
	4 3591404 4320455
;
param Q :  1 2 := 
	1 1719 1418
	2 425647 435001
	3 1185 726
	4 3492 3749
	5 218216 388525
	6 236339 223852
	7 89538 165663
	8 8778 10217
	9 92532 120563
	10 3036 3161
	11 59430 45038
	12 25158 29804
	13 10782 8095
	14 16986 18263
	15 4212 3959
	16 927 1072
	17 2667 3159
	18 71931 84956
	19 12027 10706
	20 1218 1369
	21 18570 14784
	22 48873 44496
	23 2604 1960
	24 59259 108142
	25 61635 52818
	26 150604 290213
	27 699909 409518
	28 2841 1699
	29 423229 306350
	30 131383 233140
	31 225899 443730
	32 35589 55969
	33 1203 1389
	34 50304 89729
	35 195949 388502
	36 205574 300497
	37 415108 590188
	38 14403 14558
	39 107722 156570
	40 102880 85226
	41 28152 24850
	42 130066 78360
	43 4311 3917
	44 8037 7995
	45 27594 35584
	46 5040 6499
	47 1602 839
	48 369330 579265
	49 2088 3006
	50 2994 2369
	51 2175 2530
	52 1236 953
	53 63393 48521
	54 6522 8643
	55 10839 8539
	56 2493 1362
	57 1368 1479
	58 745972 749817
	59 596195 1066385
	60 79380 92577
	61 4503 3577
	62 150142 222495
	63 34068 22428
	64 55659 30144
	65 138277 158873
	66 1458 903
	67 135646 166901
	68 133369 124208
	69 74451 86112
	70 569738 832134
	71 14094 12156
	72 648273 879647
	73 11505 15423
	74 1101 1445
	75 528026 613021
	76 9198 9121
	77 1731 1667
	78 981 1358
	79 64374 47333
	80 1962 1111
	81 205178 167588
	82 319764 591731
	83 174502 105962
	84 1152 1078
	85 177799 180284
	86 795496 1278876
	87 18444 18417
	88 414892 243833
	89 1107 1212
	90 7557 12064
	91 507662 335428
	92 217277 186089
	93 334161 426964
	94 157159 100932
	95 447106 524369
	96 399753 799061
	97 123802 186889
	98 26025 14371
	99 10713 7422
	100 25041 18209
;
param nb := 1;
param B1 := 1 1;
param B2 := 1 2;
param B3 := 1 2;
set Dep[1] :=;
set Dep[2] :=;
set Dep[3] :=;
set Dep[4] :=;
set Dep[5] :=;
set Dep[6] :=;
set Dep[7] :=;
set Dep[8] :=;
set Dep[9] :=;
set Dep[10] :=;
set Dep[11] :=;
set Dep[12] :=;
set Dep[13] :=;
set Dep[14] :=;
set Dep[15] :=;
set Dep[16] :=;
set Dep[17] :=;
set Dep[18] :=;
set Dep[19] :=;
set Dep[20] :=;
set Dep[21] :=;
set Dep[22] :=;
set Dep[23] :=;
set Dep[24] :=;
set Dep[25] :=;
set Dep[26] :=;
set Dep[27] :=;
set Dep[28] :=;
set Dep[29] :=;
set Dep[30] :=;
set Dep[31] :=;
set Dep[32] :=;
set Dep[33] :=;
set Dep[34] :=;
set Dep[35] :=;
set Dep[36] :=;
set Dep[37] :=;
set Dep[38] :=;
set Dep[39] :=;
set Dep[40] :=;
set Dep[41] :=;
set Dep[42] :=;
set Dep[43] :=;
set Dep[44] :=;
set Dep[45] :=;
set Dep[46] :=;
set Dep[47] :=;
set Dep[48] :=;
set Dep[49] :=;
set Dep[50] :=;
set Dep[51] :=;
set Dep[52] :=;
set Dep[53] :=;
set Dep[54] :=;
set Dep[55] :=;
set Dep[56] :=;
set Dep[57] :=;
set Dep[58] :=;
set Dep[59] :=;
set Dep[60] :=;
set Dep[61] :=;
set Dep[62] :=;
set Dep[63] :=;
set Dep[64] :=;
set Dep[65] :=;
set Dep[66] :=;
set Dep[67] :=;
set Dep[68] :=;
set Dep[69] :=;
set Dep[70] :=;
set Dep[71] :=;
set Dep[72] :=;
set Dep[73] :=;
set Dep[74] :=;
set Dep[75] :=;
set Dep[76] :=;
set Dep[77] :=;
set Dep[78] :=;
set Dep[79] :=;
param spread := 
	1 3
	2 0
	3 0
	4 1
	5 1
	6 1
	7 1
	8 0
	9 0
	10 1
	11 0
	12 0
	13 0
	14 0
	15 0
	16 0
	17 0
	18 0
	19 0
	20 0
	21 0
	22 0
	23 0
	24 0
	25 0
	26 0
	27 0
	28 0
	29 0
	30 0
	31 0
	32 0
	33 0
	34 0
	35 0
	36 0
	37 0
	38 0
	39 0
	40 0
	41 0
	42 0
	43 0
	44 0
	45 0
	46 0
	47 0
	48 0
	49 0
	50 0
	51 0
	52 0
	53 0
	54 0
	55 0
	56 0
	57 0
	58 0
	59 0
	60 0
	61 0
	62 0
	63 0
	64 0
	65 0
	66 0
	67 0
	68 0
	69 0
	70 0
	71 0
	72 0
	73 0
	74 0
	75 0
	76 0
	77 0
	78 0
	79 0
;
param PMC := 
	1 1	2 1	3 1	4 1	5 1	6 1	7 1	8 1	9 1	10 1	11 1	12 1	13 1	14 1	15 1	16 1	17 1	18 1	19 1	20 1	21 1	22 1	23 1	24 1	25 1	26 1	27 1	28 1	29 1	30 1	31 1	32 1	33 1	34 1	35 1	36 1	37 1	38 1	39 1	40 1	41 1	42 1	43 1	44 1	45 1	46 1	47 1	48 1	49 1	50 1	51 1	52 1	53 1	54 1	55 1	56 1	57 1	58 1	59 1	60 1	61 1	62 1	63 1	64 1	65 1	66 1	67 1	68 1	69 1	70 1	71 1	72 1	73 1	74 1	75 1	76 1	77 1	78 1	79 1	80 1	81 1	82 1	83 1	84 1	85 1	86 1	87 1	88 1	89 1	90 1	91 1	92 1	93 1	94 1	95 1	96 1	97 1	98 1	99 1	100 1;
param MMC : 1 2 3 4 := 
	1 0 1 1 1
	2 1 0 1 1
	3 1 1 0 1
	4 1 1 1 0
;
param Lw :=
	1 10
	2 10
;
param Bw :=
 1 10;
param Pw := 1;
param Sw := 10;
param Mw := 100;
param x0 := 
	1 1
	2 1
	3 1
	4 2
	5 2
	6 4
	7 4
	8 4
	9 4
	10 3
	11 2
	12 1
	13 1
	14 4
	15 4
	16 2
	17 4
	18 1
	19 1
	20 4
	21 3
	22 2
	23 2
	24 2
	25 1
	26 2
	27 2
	28 3
	29 1
	30 4
	31 4
	32 4
	33 1
	34 3
	35 3
	36 1
	37 1
	38 2
	39 1
	40 4
	41 1
	42 1
	43 2
	44 4
	45 2
	46 4
	47 1
	48 3
	49 3
	50 3
	51 1
	52 4
	53 1
	54 4
	55 4
	56 1
	57 2
	58 2
	59 3
	60 1
	61 1
	62 3
	63 3
	64 2
	65 1
	66 3
	67 4
	68 2
	69 2
	70 1
	71 1
	72 3
	73 1
	74 1
	75 3
	76 1
	77 2
	78 1
	79 2
	80 4
	81 4
	82 2
	83 1
	84 1
	85 1
	86 4
	87 1
	88 1
	89 1
	90 3
	91 1
	92 4
	93 4
	94 2
	95 3
	96 4
	97 3
	98 2
	99 2
	100 3
;
param x1 :=
	1 1
	2 1
	3 1
	4 2
	5 2
	6 4
	7 4
	8 4
	9 4
	10 3
	11 2
	12 1
	13 1
	14 4
	15 4
	16 2
	17 4
	18 1
	19 1
	20 4
	21 3
	22 2
	23 2
	24 2
	25 1
	26 2
	27 2
	28 3
	29 1
	30 4
	31 4
	32 4
	33 1
	34 3
	35 3
	36 1
	37 1
	38 2
	39 1
	40 4
	41 1
	42 1
	43 2
	44 4
	45 2
	46 4
	47 1
	48 3
	49 3
	50 3
	51 1
	52 4
	53 1
	54 4
	55 4
	56 1
	57 2
	58 2
	59 3
	60 1
	61 1
	62 3
	63 3
	64 2
	65 1
	66 3
	67 4
	68 2
	69 2
	70 1
	71 1
	72 3
	73 1
	74 1
	75 4
	76 1
	77 2
	78 1
	79 2
	80 4
	81 4
	82 2
	83 1
	84 1
	85 1
	86 4
	87 1
	88 1
	89 1
	90 3
	91 1
	92 4
	93 4
	94 2
	95 3
	96 4
	97 3
	98 2
	99 2
	100 3
;
